c Random generated cnf formula, satisfiable: false
p cnf 10 50
9 2 -7 0
-9 8 -10 0
-7 5 3 0
-9 -2 5 0
-7 8 10 0
-1 -9 10 0
9 -4 -3 0
6 3 9 0
-2 5 6 0
-5 1 4 0
-3 -4 -5 0
8 -1 -10 0
-4 3 -1 0
-1 -10 -8 0
-6 -3 -9 0
9 -1 5 0
2 4 5 0
-7 -3 -4 0
-5 -2 6 0
-2 -6 10 0
2 7 -5 0
-8 -4 9 0
-1 -10 2 0
6 -1 -3 0
-6 -8 -7 0
-7 1 10 0
-2 4 -3 0
6 -3 -5 0
-8 1 3 0
8 -9 7 0
-4 8 -9 0
-5 3 -4 0
-4 -9 3 0
8 1 9 0
5 10 4 0
1 -5 8 0
9 1 2 0
6 1 3 0
5 -7 -10 0
10 2 -7 0
4 -3 6 0
3 -2 9 0
8 6 -3 0
5 6 -8 0
9 -3 7 0
5 -3 -7 0
5 -1 -3 0
-10 -3 -5 0
-2 -5 10 0
-2 -4 -5 0
